s td 63 8 70
b 1 1 2 11
b 2 9 10 20
b 3 51 61 62
b 4 60 69 70
b 5 2 3 11 12
b 6 8 9 19 20
b 7 3 4 14 25 36 47 56 65
b 8 4 5 14 25 36 47 56 65
b 9 5 14 16 25 36 47 56 65
b 10 5 16 25 27 36 47 56 65
b 11 5 16 27 36 38 47 56 65
b 12 5 7 16 27 38 47 56 65
b 13 5 6 7 16
b 14 7 16 18 27 38 47 56 65
b 15 7 18 27 29 38 47 56 65
b 16 7 18 29 30 38 47 56 65
b 17 7 18 19 29 30
b 18 7 8 18 19 30
b 19 8 19 20 30
b 20 29 30 38 39 47 56 65
b 21 30 38 39 47 48 56 65
b 22 30 39 47 48 56 57 65
b 23 30 39 48 56 57 65 68
b 24 30 39 48 50 57 68
b 25 30 39 40 50
b 26 39 48 50 57 59 68
b 27 39 48 49 50 59
b 28 48 57 58 59 68
b 29 50 59 68 69
b 30 56 57 65 67 68
b 31 56 65 66 67
b 32 18 27 28 29 38
b 33 7 16 17 18 27
b 34 27 36 37 38 47
b 35 16 25 26 27 36
b 36 5 14 15 16 25
b 37 3 14 25 36 45 47 56 65
b 38 3 14 25 36 45 54 56 65
b 39 3 14 25 34 36 45 54 65
b 40 3 14 25 34 43 45 54 65
b 41 3 14 23 25 34 43 54 65
b 42 3 14 23 32 34 43 54 65
b 43 3 14 21 23 32 43 54 65
b 44 3 12 14 21 23 32
b 45 3 11 12 21
b 46 3 12 13 14 23
b 47 12 21 22 23 32
b 48 21 32 41 43 54 65
b 49 21 31 32 41
b 50 32 41 43 52 54 65
b 51 32 41 42 43 52
b 52 41 43 52 54 63 65
b 53 43 52 53 54 63
b 54 41 52 62 63
b 55 54 63 64 65
b 56 23 32 33 34 43
b 57 14 23 24 25 34
b 58 34 43 44 45 54
b 59 25 34 35 36 45
b 60 45 54 55 56 65
b 61 36 45 46 47 56
b 62 41 51 52 62
b 63 50 59 60 69
1 5
2 6
3 62
4 63
5 45
6 19
7 8
7 37
8 9
9 10
9 36
10 11
10 35
11 12
11 34
12 13
12 14
14 15
14 33
15 16
15 32
16 17
16 20
17 18
18 19
20 21
21 22
22 23
23 24
23 30
24 25
24 26
26 27
26 28
26 29
29 63
30 31
37 38
37 61
38 39
38 60
39 40
39 59
40 41
40 58
41 42
41 57
42 43
42 56
43 44
43 48
44 45
44 46
44 47
48 49
48 50
50 51
50 52
52 53
52 54
52 55
54 62
